c FILE: i160-011

c SOURCE: From steinlib

c DESCRIPTION: Steinlib instance with 160 nodes and 812 edges.

p edge 160 812
e 1 8
e 1 11
e 1 17
e 1 26
e 1 39
e 1 40
e 1 42
e 1 44
e 1 52
e 1 82
e 1 100
e 1 114
e 1 116
e 1 129
e 1 136
e 1 137
e 2 3
e 2 7
e 2 26
e 2 60
e 2 76
e 2 103
e 2 107
e 2 108
e 2 131
e 2 141
e 3 29
e 3 30
e 3 93
e 3 97
e 3 136
e 4 15
e 4 24
e 4 36
e 4 38
e 4 52
e 4 56
e 4 72
e 4 89
e 4 119
e 4 125
e 4 133
e 4 140
e 4 149
e 4 153
e 5 41
e 5 43
e 5 65
e 5 72
e 5 79
e 5 84
e 5 109
e 5 110
e 5 114
e 5 117
e 5 153
e 6 15
e 6 32
e 6 42
e 6 76
e 6 78
e 6 81
e 6 106
e 6 117
e 6 134
e 6 141
e 6 147
e 7 10
e 7 15
e 7 18
e 7 38
e 7 69
e 7 75
e 7 87
e 7 93
e 7 107
e 7 122
e 8 20
e 8 31
e 8 38
e 8 45
e 8 80
e 8 81
e 8 82
e 8 85
e 8 87
e 8 96
e 8 159
e 9 46
e 9 74
e 9 75
e 9 86
e 9 141
e 10 25
e 10 30
e 10 34
e 10 46
e 10 52
e 10 114
e 10 129
e 10 133
e 11 23
e 11 30
e 11 45
e 11 48
e 11 74
e 11 99
e 11 104
e 11 108
e 11 119
e 11 128
e 11 129
e 11 148
e 12 13
e 12 23
e 12 31
e 12 41
e 12 67
e 12 75
e 12 88
e 12 106
e 12 135
e 12 141
e 13 19
e 13 20
e 13 26
e 13 46
e 13 71
e 13 85
e 13 145
e 14 20
e 14 31
e 14 56
e 14 89
e 14 110
e 14 127
e 14 138
e 14 150
e 15 23
e 15 24
e 15 39
e 15 58
e 15 59
e 15 62
e 15 77
e 15 82
e 15 90
e 15 93
e 15 108
e 15 115
e 15 151
e 15 153
e 15 155
e 16 17
e 16 18
e 16 53
e 16 64
e 16 75
e 16 85
e 16 89
e 16 109
e 16 123
e 16 134
e 16 139
e 17 21
e 17 22
e 17 30
e 17 36
e 17 60
e 17 61
e 17 77
e 17 79
e 17 84
e 17 109
e 17 123
e 17 128
e 17 145
e 17 149
e 18 62
e 18 81
e 18 98
e 18 107
e 18 113
e 18 155
e 19 56
e 19 94
e 19 122
e 19 132
e 19 145
e 19 151
e 19 159
e 20 46
e 20 49
e 20 58
e 20 78
e 20 80
e 20 83
e 20 90
e 20 91
e 20 95
e 20 102
e 20 106
e 20 107
e 20 128
e 20 143
e 20 158
e 21 22
e 21 25
e 21 35
e 21 38
e 21 81
e 21 83
e 21 86
e 21 136
e 21 139
e 21 148
e 21 149
e 21 153
e 22 36
e 22 63
e 23 44
e 23 45
e 23 54
e 23 69
e 23 70
e 23 76
e 23 81
e 23 89
e 23 92
e 23 106
e 23 108
e 23 117
e 24 26
e 24 33
e 24 52
e 24 54
e 24 69
e 24 72
e 24 74
e 24 81
e 24 104
e 24 113
e 24 142
e 25 26
e 25 28
e 25 38
e 25 48
e 25 77
e 25 92
e 25 98
e 25 121
e 25 136
e 26 45
e 26 54
e 26 60
e 26 67
e 26 89
e 26 98
e 26 99
e 26 124
e 26 158
e 27 62
e 27 107
e 27 109
e 27 129
e 27 132
e 27 149
e 27 150
e 28 29
e 28 64
e 28 71
e 28 82
e 28 83
e 28 140
e 29 97
e 29 118
e 29 130
e 29 133
e 29 137
e 29 141
e 29 148
e 30 38
e 30 83
e 30 85
e 30 102
e 30 136
e 30 141
e 30 143
e 30 151
e 30 159
e 31 37
e 31 39
e 31 40
e 31 42
e 31 56
e 31 59
e 31 63
e 31 65
e 31 73
e 31 80
e 31 82
e 31 108
e 31 115
e 31 122
e 31 124
e 31 135
e 31 160
e 32 36
e 32 44
e 32 59
e 32 82
e 32 88
e 32 146
e 32 160
e 33 40
e 33 51
e 33 66
e 33 77
e 33 86
e 33 103
e 33 111
e 33 116
e 33 120
e 33 154
e 34 39
e 34 63
e 34 70
e 34 72
e 34 84
e 34 88
e 34 104
e 34 135
e 34 139
e 34 154
e 34 157
e 34 159
e 35 40
e 35 45
e 35 49
e 35 57
e 35 86
e 35 97
e 35 104
e 35 109
e 35 131
e 36 41
e 36 43
e 36 53
e 36 75
e 36 100
e 37 60
e 37 62
e 37 90
e 37 130
e 37 153
e 38 76
e 38 107
e 38 113
e 38 140
e 38 145
e 38 146
e 38 152
e 38 157
e 39 46
e 39 51
e 39 53
e 39 73
e 39 88
e 39 93
e 39 97
e 39 123
e 39 141
e 39 150
e 39 155
e 40 46
e 40 61
e 40 65
e 40 88
e 40 119
e 40 127
e 40 137
e 41 73
e 41 75
e 41 100
e 41 101
e 41 145
e 41 150
e 42 51
e 42 80
e 42 113
e 43 51
e 43 56
e 43 60
e 43 74
e 43 122
e 43 123
e 43 150
e 44 52
e 44 56
e 44 66
e 44 70
e 44 84
e 44 123
e 44 130
e 44 133
e 44 136
e 44 159
e 45 83
e 45 87
e 45 91
e 45 124
e 45 141
e 45 160
e 46 56
e 46 67
e 46 78
e 46 98
e 46 109
e 46 110
e 46 111
e 46 120
e 46 130
e 46 140
e 46 143
e 46 144
e 46 157
e 47 59
e 47 82
e 47 96
e 47 104
e 47 116
e 47 120
e 47 121
e 47 130
e 47 152
e 47 157
e 48 67
e 48 69
e 48 75
e 48 83
e 48 99
e 48 104
e 48 129
e 48 135
e 48 147
e 48 148
e 49 55
e 49 65
e 49 118
e 50 60
e 50 80
e 50 114
e 50 142
e 50 150
e 50 153
e 51 107
e 51 129
e 51 137
e 52 86
e 52 125
e 52 159
e 53 59
e 53 116
e 53 129
e 53 142
e 54 58
e 54 78
e 54 80
e 54 85
e 54 93
e 54 98
e 54 101
e 54 129
e 54 137
e 54 145
e 54 149
e 55 73
e 55 86
e 55 101
e 55 115
e 55 129
e 55 130
e 55 142
e 55 153
e 55 156
e 56 99
e 56 101
e 57 60
e 57 61
e 57 63
e 57 86
e 57 106
e 57 117
e 57 124
e 57 132
e 57 158
e 58 83
e 58 96
e 58 116
e 58 119
e 58 137
e 58 149
e 58 150
e 59 65
e 59 68
e 59 70
e 59 73
e 59 114
e 59 132
e 59 135
e 59 137
e 59 155
e 60 62
e 60 72
e 60 88
e 60 126
e 60 133
e 60 141
e 61 77
e 61 112
e 61 113
e 61 127
e 63 80
e 63 92
e 63 93
e 63 110
e 63 148
e 64 143
e 64 154
e 64 159
e 65 74
e 65 101
e 65 136
e 66 84
e 66 104
e 66 106
e 66 140
e 66 147
e 67 76
e 67 77
e 67 79
e 67 100
e 67 103
e 67 131
e 67 151
e 68 72
e 68 84
e 68 96
e 68 108
e 68 117
e 68 134
e 69 92
e 69 137
e 69 139
e 69 146
e 70 81
e 70 89
e 70 125
e 70 126
e 70 134
e 70 148
e 71 84
e 71 91
e 71 97
e 71 106
e 71 129
e 72 99
e 72 116
e 72 129
e 72 130
e 72 135
e 73 75
e 73 108
e 73 129
e 73 151
e 74 78
e 74 99
e 74 120
e 74 126
e 74 127
e 74 150
e 75 80
e 75 85
e 75 86
e 75 99
e 75 132
e 75 133
e 75 138
e 76 82
e 76 84
e 76 85
e 76 99
e 76 145
e 76 157
e 77 78
e 77 85
e 77 105
e 77 153
e 78 85
e 78 136
e 78 137
e 78 142
e 78 145
e 78 146
e 78 159
e 79 81
e 79 86
e 79 92
e 79 125
e 79 127
e 79 149
e 79 151
e 80 81
e 80 92
e 80 99
e 81 82
e 81 83
e 81 104
e 81 134
e 82 85
e 82 102
e 82 105
e 82 113
e 82 119
e 82 121
e 82 127
e 82 143
e 82 156
e 83 107
e 83 143
e 83 157
e 84 95
e 84 100
e 84 116
e 85 86
e 85 95
e 85 98
e 85 103
e 85 105
e 85 156
e 86 87
e 86 96
e 86 99
e 86 108
e 86 152
e 87 101
e 87 112
e 88 94
e 88 95
e 88 122
e 88 146
e 88 158
e 89 90
e 89 109
e 89 142
e 89 146
e 90 105
e 90 114
e 90 115
e 90 117
e 90 151
e 92 113
e 92 115
e 92 117
e 92 139
e 93 97
e 93 118
e 93 125
e 93 134
e 93 141
e 93 143
e 93 149
e 94 139
e 94 141
e 94 157
e 95 115
e 95 126
e 95 130
e 95 133
e 95 140
e 96 116
e 96 158
e 97 101
e 97 112
e 98 102
e 98 122
e 98 133
e 99 103
e 99 141
e 99 150
e 100 115
e 100 131
e 100 150
e 100 156
e 101 110
e 101 124
e 101 127
e 101 139
e 101 155
e 102 106
e 102 115
e 102 130
e 102 144
e 102 146
e 102 156
e 103 121
e 103 130
e 103 141
e 103 144
e 103 157
e 104 105
e 104 118
e 104 138
e 104 147
e 105 121
e 105 137
e 105 145
e 105 160
e 106 117
e 106 123
e 106 131
e 106 155
e 107 120
e 107 123
e 107 133
e 107 134
e 107 153
e 107 159
e 108 137
e 108 141
e 109 123
e 109 140
e 109 141
e 109 149
e 110 130
e 110 133
e 110 143
e 110 148
e 111 113
e 111 124
e 111 150
e 111 154
e 111 155
e 112 122
e 112 125
e 112 160
e 113 144
e 114 122
e 114 140
e 114 145
e 116 143
e 116 151
e 117 123
e 117 131
e 118 121
e 118 128
e 118 137
e 118 138
e 118 146
e 118 151
e 118 157
e 119 124
e 119 126
e 119 134
e 120 142
e 120 150
e 121 147
e 121 148
e 121 153
e 124 126
e 124 128
e 124 142
e 124 151
e 125 139
e 125 146
e 125 151
e 126 128
e 126 132
e 126 140
e 127 148
e 127 158
e 128 129
e 128 145
e 128 147
e 129 135
e 129 140
e 129 141
e 129 146
e 130 138
e 130 146
e 130 154
e 130 156
e 133 150
e 134 139
e 134 147
e 134 157
e 135 137
e 135 141
e 135 143
e 135 153
e 135 155
e 136 153
e 137 156
e 140 150
e 142 145
e 142 147
e 142 151
e 144 158
e 145 158
e 151 156
e 152 155
e 155 158
